c Sudoku solution
p cnf 729 0
235 0
249 0
268 0
311 0
342 0
367 0
396 0
533 0
574 0
589 0
592 0
639 0
647 0
653 0
678 0
695 0
763 0
143 0
814 0
825 0
893 0
929 0
913 0
119 0
379 0
799 0
941 0
954 0
784 0
444 0
624 0
355 0
164 0
334 0
294 0
976 0
997 0
491 0
686 0
521 0
661 0
517 0
415 0
612 0
216 0
156 0
251 0
718 0
932 0
965 0
746 0
848 0
775 0
752 0
869 0
857 0
836 0
988 0
727 0
731 0
426 0
438 0
137 0
545 0
566 0
558 0
459 0
462 0
185 0
881 0
872 0
171 0
198 0
383 0
122 0
223 0
328 0
277 0
282 0
473 0
487 0
